p cnf 54 193
3 1 0
3 2 0
-1 -2 -3 0
-5 4 0
-5 -2 0
-4 2 5 0
8 6 0
8 7 0
-6 -7 -8 0
9 -5 0
9 8 0
5 -8 -9 0
10 -3 0
10 -9 0
3 9 -10 0
-13 -8 0
-13 12 0
8 -12 13 0
-14 11 0
-14 -13 0
-11 13 14 0
-15 -10 0
-15 14 0
10 -14 15 0
-6 7 -16 0
6 -7 -16 0
-6 -7 16 0
6 7 16 0
17 4 0
17 16 0
-4 -16 -17 0
-19 -17 0
-19 18 0
17 -18 19 0
20 -4 0
20 1 0
4 -1 -20 0
21 -13 0
21 4 0
13 -4 -21 0
4 -21 -22 0
-4 21 -22 0
4 21 22 0
-4 -21 22 0
-23 20 0
-23 22 0
-20 -22 23 0
24 17 0
24 8 0
-17 -8 -24 0
-4 -25 -26 0
4 25 -26 0
-4 25 26 0
4 -25 26 0
27 24 0
27 -26 0
-24 26 -27 0
28 -4 0
28 27 0
4 -27 -28 0
-21 16 -29 0
21 -16 -29 0
-21 -16 29 0
21 16 29 0
-7 4 -30 0
7 -4 -30 0
-7 -4 30 0
7 4 30 0
29 -30 -31 0
-29 30 -31 0
29 30 31 0
-29 -30 31 0
12 -31 -32 0
-12 31 -32 0
12 31 32 0
-12 -31 32 0
33 -28 0
33 -32 0
28 32 -33 0
34 23 0
34 -33 0
-23 33 -34 0
-35 19 0
-35 34 0
-19 -34 35 0
36 6 0
36 -16 0
-6 16 -36 0
-2 12 -37 0
2 -12 -37 0
-2 -12 37 0
2 12 37 0
38 12 0
38 37 0
-12 -37 -38 0
-39 -31 0
-39 -5 0
31 5 39 0
40 4 0
40 -26 0
-4 26 -40 0
-39 -40 -41 0
39 40 -41 0
-39 40 41 0
39 -40 41 0
-38 41 -42 0
38 -41 -42 0
-38 -41 42 0
38 41 42 0
-43 -36 0
-43 -42 0
36 42 43 0
-44 -35 0
-44 -43 0
35 43 44 0
-13 45 -46 0
13 -45 -46 0
-13 -45 46 0
13 45 46 0
47 -17 0
47 21 0
17 -21 -47 0
-47 12 -48 0
47 -12 -48 0
-47 -12 48 0
47 12 48 0
-46 48 -49 0
46 -48 -49 0
-46 -48 49 0
46 48 49 0
-1 -6 -50 0
1 6 -50 0
-1 6 50 0
1 -6 50 0
50 13 -51 0
-50 -13 -51 0
50 -13 51 0
-50 13 51 0
-49 -51 -52 0
49 51 -52 0
-49 51 52 0
49 -51 52 0
-53 44 0
-53 -52 0
-44 52 53 0
54 -15 0
54 -53 0
15 53 -54 0
29 -42 -4 31 14 -44 0
-17 3 -34 0
-51 30 17 -11 0
-39 5 -50 -22 8 -9 0
-45 53 10 14 -23 0
1 47 30 53 -50 0
-24 -30 -47 -9 -6 -36 0
-12 -44 7 43 0
-29 -14 0
-25 -27 -28 -49 41 0
26 51 0
-11 -24 -38 37 -20 -48 0
25 30 0
-36 32 -2 43 26 -19 0
-13 48 9 -34 16 0
-10 -9 4 -29 21 0
5 -26 0
-13 -26 -45 0
-17 51 -41 0
54 -32 -38 0
-19 -32 0
-27 54 0
46 2 6 -43 39 0
21 -37 -17 -43 -50 0
49 -44 48 0
-37 -45 36 28 33 -52 0
-50 6 2 -44 0
-6 -35 -47 0
-11 -52 -22 0
50 16 -15 9 0
12 40 54 -45 11 0
8 33 -41 1 -7 -45 0
-41 -3 2 22 0
38 -44 12 -50 0
-6 -30 0
48 38 -37 -31 0
51 -4 0
-31 -6 0
19 44 6 -45 34 -40 0
21 1 0
-46 -39 0
-17 -21 28 36 -16 -23 0
44 19 0
-31 7 -19 16 37 -13 0
54 0
